% demand
num_movements = 43;
loading_factor = [1750, 900, 1500, 1300, 1900, 1950, 1700, 800, 1500, 1950, 1250, 1800, 1750, 1700, 950, 1300, 1450, 800, 1050, 2000, 1000, 800, 1800, 1950, 1250, 1900, 1500, 1550, 1650, 1800, 850, 850, 1500, 1050, 1700, 800, 850, 850, 900, 1650, 1900, 1100, 1050];
pickup_time = [0, 1, 1, 1, 1, 1, 1, 2, 2, 3, 3, 3, 3, 4, 4, 4, 4, 4, 4, 6, 6, 7, 7, 7, 7, 7, 7, 8, 8, 8, 8, 9, 10, 10, 10, 10, 11, 12, 12, 13, 13, 13, 13];
delivery_time = [2, 2, 2, 4, 2, 3, 2, 4, 4, 7, 4, 7, 4, 7, 5, 7, 5, 8, 6, 7, 8, 8, 8, 8, 8, 9, 8, 12, 9, 13, 12, 14, 14, 11, 11, 14, 13, 14, 14, 14, 14, 14, 14];

% transporter definition
total_capacity = 11000;
num_decks = 4;
capacity = [3000, 3000, 1000, 4000];

% ways out of decks
num_ways_out = 2;
paths_out = array3d(decks, ways_out, decks, [
% ways out of deck d1
2, 4, 0, 0, 3, 4, 0, 0, 

% ways out of deck d2
4, 0, 0, 0, 0, 0, 0, 0,	

% ways out of deck d3
4, 0, 0, 0, 0, 0, 0, 0,	

% ways out of deck d4
0, 0, 0, 0,	0, 0, 0, 0,	

]);

